0 458 42
1 219 70
2 276 171
3 62 215
4 387 245
5 254 89
6 22 705
7 139 73
8 56 603
9 167 682
10 244 542
11 432 67
12 15 124
13 509 190
14 92 33
15 168 272
16 46 289
17 8 22
18 642 63
19 95 37
20 16 298
21 2 124
22 75 547
23 786 425
24 18 123
25 230 577
26 41 709
27 13 45
28 203 81
29 1 3
30 43 243
31 378 405
32 124 108
33 458 15
34 271 687
35 167 284
36 124 84
37 59 65
38 181 691
39 123 150
40 35 478
41 798 408
42 125 79
43 142 8
44 75 81
45 301 200
46 336 498
47 16 78
48 917 466
49 22 456
50 597 523
51 32 49
52 129 511
53 333 24
54 544 95
55 199 306
56 159 144
57 480 395
58 100 234
59 624 186
60 685 384
61 280 22
62 155 214
63 916 171
64 262 116
65 634 143
66 3 339
67 604 101
68 219 780
69 219 328
70 757 87
71 608 152
72 105 76
73 545 618
74 326 394